import ReturnResults.dzn;

interface iControl
{
	in returnResult tac_getTheBall();
  	in returnResult tac_shootBall();
  	in returnResult tac_attack();

  	behaviour
  	{
  		on tac_getTheBall:{
  			reply(returnResult.busy);
  		}
  		on tac_getTheBall:{
  			reply(returnResult.succes);
  		}
  		on tac_getTheBall:{
  			reply(returnResult.fail);
  		}
  		on tac_shootBall:{
  			reply(returnResult.busy);
  		}
  		on tac_shootBall:{
  			reply(returnResult.succes);
  		}
  		on tac_shootBall:{
  			reply(returnResult.fail);
  		}
  		on tac_attack:{
  			reply(returnResult.busy);
  		}
  		on tac_attack:{
  			reply(returnResult.succes);
  		}
  		on tac_attack:{
  			reply(returnResult.fail);
  		}
	}
}

interface iBallHandling
{
	in returnResult handleTheBall();
	
	behaviour
  	{
		on handleTheBall:
		{
			reply(returnResult.succes);
		}   	
		on handleTheBall:
		{
			reply(returnResult.fail);
		}	
  	}
}

interface iShooting
{
	in returnResult shootTheBall();
	
	behaviour
  	{
   		on shootTheBall:
   		{
   			reply(returnResult.succes);
   		}
   		on shootTheBall:
   		{
   			reply(returnResult.fail);
   		}
   		
  	}
}



interface iWheelDriver
{
	in returnResult getToTheBall();
	
	behaviour
	{
	  	on getToTheBall:
   		{
   			reply(returnResult.succes);
   		}
   		on getToTheBall:
   		{
   			reply(returnResult.fail);
   		}
	}
}

interface iWorldModel
{
	in returnResult findTheBall();
	
	behaviour
	{
	  	on findTheBall:
   		{
   			reply(returnResult.succes);
   		}
   		on findTheBall:
   		{
   			reply(returnResult.fail);
   		}
	  	
	}
}

interface iNavigation
{
	in returnResult Navigate();
	
	behaviour
	{
	  	on Navigate:
   		{
   			reply(returnResult.succes);
   		}
   		on Navigate:
   		{
   			reply(returnResult.fail);
   		}
	}
}